7346
8214
6285
8085
2093
7686
7254
3117
5248
1523
9871
5830
6889
2403
3332
10054
9746
7346
7706
5876
7132
8476
3086
6749
4771
7217
7689
8972
5677
8657
7925
1414
7734
10072
6376
7782
5867
4151
2561
7253
9938
9932
1076
8592
7418
9397
8381
4936
4582
859
